(set-info :Origin "This instance was generated by: BanditFuzz-- an RL fuzzer for SMT solvers" )
(set-info :Author "Joe Scott, Fed Mora, Vijay Ganesh" )
(set-info :Contact "Joe Scott, joseph.scott@uwaterloo.ca")
(set-logic QF_BV)
(declare-const bool_0 Bool)
(declare-const bool_1 Bool)
(declare-const bool_2 Bool)
(declare-const bool_3 Bool)
(declare-const bool_4 Bool)
(declare-const bv_0 (_ BitVec 32))
(declare-const bv_1 (_ BitVec 32))
(declare-const bv_2 (_ BitVec 32))
(declare-const bv_3 (_ BitVec 32))
(declare-const bv_4 (_ BitVec 32))
(assert (bvsge (bvadd (bvsrem bv_1 bv_3) (bvudiv bv_0 #xd192729a )) (bvashr (bvsrem bv_4 #x5d8613f2 ) (bvsmod #xb4383c47  #xedfd227d ))))
(assert (bvuge (bvsub (bvsub #x56c97642  bv_2) (bvsrem bv_3 bv_0)) (bvxnor (bvadd bv_1 bv_4) (bvnor #x29252991  bv_3))))
(assert (bvule (bvurem (bvlshr #x2fb31d30  #x503ac9f6 ) (bvnor bv_0 #x1ce80f5c )) (bvlshr (bvxor bv_0 #x1d5d966c ) (bvmul bv_3 bv_0))))
(assert (bvsle (bvand (bvudiv bv_3 bv_4) (bvand #xe39d5b9a  bv_4)) (bvsmod (bvxor bv_3 #xfc7d0e40 ) (bvlshr bv_1 #xa809730a ))))
(assert (not (bvult (bvmul #x5dc75a66  #xc157f15b ) (bvand #x8d8dfb9d  bv_2))))
(check-sat)
(exit)
